c FILE: i080-234

c SOURCE: From steinlib

c DESCRIPTION: Steinlib instance with 80 nodes and 160 edges.

p edge 80 160
e 1 3
e 1 23
e 1 43
e 2 10
e 2 13
e 2 74
e 3 31
e 3 55
e 3 63
e 3 79
e 4 32
e 4 42
e 4 47
e 4 79
e 5 11
e 5 47
e 5 66
e 5 73
e 5 78
e 6 14
e 6 15
e 6 24
e 6 37
e 6 46
e 7 22
e 7 34
e 7 42
e 7 54
e 7 59
e 8 13
e 8 17
e 8 18
e 8 24
e 8 75
e 9 11
e 9 66
e 10 51
e 10 76
e 11 23
e 11 34
e 11 36
e 11 48
e 11 49
e 11 62
e 11 68
e 11 70
e 11 78
e 12 14
e 12 24
e 12 39
e 13 17
e 13 69
e 13 71
e 14 22
e 14 56
e 14 68
e 15 48
e 16 19
e 16 26
e 16 36
e 16 43
e 16 47
e 16 64
e 16 67
e 16 69
e 17 23
e 17 39
e 17 51
e 17 57
e 17 58
e 18 22
e 18 27
e 18 44
e 19 23
e 19 26
e 19 48
e 19 53
e 19 74
e 19 77
e 20 24
e 20 36
e 20 40
e 21 25
e 21 55
e 21 63
e 22 58
e 22 80
e 23 43
e 23 48
e 24 47
e 24 53
e 25 56
e 25 64
e 25 76
e 26 33
e 26 37
e 26 42
e 26 49
e 26 72
e 26 74
e 26 75
e 27 28
e 27 63
e 27 74
e 28 51
e 28 54
e 28 55
e 29 37
e 29 45
e 29 60
e 29 76
e 30 35
e 30 41
e 30 65
e 31 37
e 31 79
e 32 36
e 32 42
e 32 61
e 32 68
e 33 37
e 33 42
e 33 44
e 33 69
e 33 71
e 35 46
e 35 58
e 35 69
e 35 75
e 36 44
e 37 55
e 37 56
e 38 50
e 38 51
e 38 72
e 39 67
e 40 45
e 40 72
e 41 66
e 41 80
e 42 55
e 43 78
e 46 79
e 47 64
e 48 54
e 48 70
e 50 70
e 51 76
e 52 74
e 54 68
e 54 70
e 55 64
e 57 73
e 58 66
e 59 68
e 60 72
e 63 71
e 65 66
e 69 71
e 71 72
